5402
5330
5378
5576
5404
5396
5394
5696
5286
5286
5358
5652
5664
5438
5392
5454
5340
5344
5550
5390
5422
5518
5414
5332
5510
5374
5334
5510
5390
5474
5568
5420
5462
5452
5332
5514
5606
5386
5436
5392
5450
5570
5448
